8434616285162599813509,3,1,2,03,11,1,2,014,3,1,2,04,12,1,2,02,15,1,2,09,14,1,2,013,7,1,2,010,2,1,2,015,14,1,2,04,15,1,2,03,8,1,2,015,4,1,2,03,11,1,2,01,2,1,2,03,4,1,2,014,1,1,2,09,5,1,2,012,12,1,2,01,3,1,2,010,14,1,2,013,1,1,2,014,13,1,2,05,13,1,2,010,14,1,2,011,13,1,2,013,4,1,2,04,11,1,2,06,7,1,2,015,7,1,2,09,1,1,2,011,3,1,2,06,12,1,2,08,8,1,2,05,9,1,2,08,13,1,2,09,14,1,2,010,9,1,2,05,1,1,2,012,7,1,2,011,15,1,2,01,5,1,2,03,12,1,2,011,13,1,2,01,3,1,2,015,14,1,2,010,2,1,2,08,4,1,2,010,2,1,2,014,2,1,2,08,12,1,2,0